c nombre: 5
c densidad: 0.1
p edges 30 49
e 1 2
e 1 14
e 1 15
e 2 16
e 2 17
e 2 18
e 2 21
e 2 27
e 3 10
e 3 23
e 3 27
e 4 7
e 4 18
e 4 22
e 4 29
e 5 7
e 6 17
e 7 11
e 7 18
e 8 10
e 9 16
e 9 20
e 9 30
e 10 23
e 11 17
e 12 14
e 12 17
e 12 19
e 12 28
e 13 22
e 13 23
e 14 21
e 15 20
e 15 24
e 17 18
e 17 21
e 17 22
e 17 24
e 17 28
e 18 26
e 19 20
e 20 24
e 20 28
e 21 23
e 21 24
e 21 27
e 22 23
e 23 27
e 24 28
